NAME          
ROWS
 N  OBJ
 L  c1
 L  c2
 L  c3
COLUMNS
    MARKER    'MARKER'                 'INTORG'
    x[1]      c1        5
    x[1]      c2        618
    x[1]      c3        431
    x[1]      OBJ       -332
    x[2]      c1        109
    x[2]      c2        903
    x[2]      c3        600
    x[2]      OBJ       -89
    x[3]      c1        350
    x[3]      c2        600
    x[3]      c3        49
    x[3]      OBJ       -417
    x[4]      c1        818
    x[4]      c2        999
    x[4]      c3        42
    x[4]      OBJ       -22
    x[5]      c1        325
    x[5]      c2        600
    x[5]      c3        606
    x[5]      OBJ       -207
    x[6]      c1        131
    x[6]      c2        842
    x[6]      c3        714
    x[6]      OBJ       -960
    x[7]      c1        925
    x[7]      c2        634
    x[7]      c3        794
    x[7]      OBJ       -349
    x[8]      c1        126
    x[8]      c2        309
    x[8]      c3        189
    x[8]      OBJ       -333
    x[9]      c1        962
    x[9]      c2        842
    x[9]      c3        33
    x[9]      OBJ       -378
    x[10]     c1        853
    x[10]     c2        514
    x[10]     c3        199
    x[10]     OBJ       -376
    x[11]     c1        473
    x[11]     c2        405
    x[11]     c3        64
    x[11]     OBJ       -186
    x[12]     c1        266
    x[12]     c2        766
    x[12]     c3        211
    x[12]     OBJ       -749
    x[13]     c1        546
    x[13]     c2        102
    x[13]     c3        286
    x[13]     OBJ       -299
    x[14]     c1        2
    x[14]     c2        232
    x[14]     c3        423
    x[14]     OBJ       -587
    x[15]     c1        135
    x[15]     c2        292
    x[15]     c3        84
    x[15]     OBJ       -337
    x[16]     c1        403
    x[16]     c2        964
    x[16]     c3        365
    x[16]     OBJ       -68
    x[17]     c1        687
    x[17]     c2        174
    x[17]     c3        362
    x[17]     OBJ       -384
    x[18]     c1        70
    x[18]     c2        656
    x[18]     c3        54
    x[18]     OBJ       -616
    x[19]     c1        577
    x[19]     c2        14
    x[19]     c3        819
    x[19]     OBJ       -206
    x[20]     c1        935
    x[20]     c2        738
    x[20]     c3        124
    x[20]     OBJ       -891
    x[21]     c1        630
    x[21]     c2        688
    x[21]     c3        782
    x[21]     OBJ       -974
    x[22]     c1        720
    x[22]     c2        734
    x[22]     c3        649
    x[22]     OBJ       -897
    x[23]     c1        849
    x[23]     c2        946
    x[23]     c3        680
    x[23]     OBJ       -459
    x[24]     c1        526
    x[24]     c2        820
    x[24]     c3        711
    x[24]     OBJ       -539
    x[25]     c1        492
    x[25]     c2        145
    x[25]     c3        295
    x[25]     OBJ       -817
    x[26]     c1        735
    x[26]     c2        337
    x[26]     c3        89
    x[26]     OBJ       -466
    x[27]     c1        898
    x[27]     c2        588
    x[27]     c3        726
    x[27]     OBJ       -328
    x[28]     c1        809
    x[28]     c2        919
    x[28]     c3        173
    x[28]     OBJ       -226
    x[29]     c1        275
    x[29]     c2        868
    x[29]     c3        466
    x[29]     OBJ       -589
    x[30]     c1        142
    x[30]     c2        509
    x[30]     c3        801
    x[30]     OBJ       -230
    x[31]     c1        708
    x[31]     c2        878
    x[31]     c3        80
    x[31]     OBJ       -345
    x[32]     c1        4
    x[32]     c2        91
    x[32]     c3        412
    x[32]     OBJ       -653
    x[33]     c1        472
    x[33]     c2        681
    x[33]     c3        959
    x[33]     OBJ       -857
    x[34]     c1        16
    x[34]     c2        542
    x[34]     c3        804
    x[34]     OBJ       -918
    x[35]     c1        311
    x[35]     c2        438
    x[35]     c3        660
    x[35]     OBJ       -539
    x[36]     c1        191
    x[36]     c2        980
    x[36]     c3        470
    x[36]     OBJ       -582
    x[37]     c1        77
    x[37]     c2        783
    x[37]     c3        698
    x[37]     OBJ       -19
    x[38]     c1        122
    x[38]     c2        882
    x[38]     c3        513
    x[38]     OBJ       -724
    x[39]     c1        580
    x[39]     c2        364
    x[39]     c3        988
    x[39]     OBJ       -292
    x[40]     c1        59
    x[40]     c2        542
    x[40]     c3        218
    x[40]     OBJ       -787
    x[41]     c1        610
    x[41]     c2        49
    x[41]     c3        733
    x[41]     OBJ       -731
    x[42]     c1        133
    x[42]     c2        960
    x[42]     c3        666
    x[42]     OBJ       -842
    x[43]     c1        829
    x[43]     c2        214
    x[43]     c3        552
    x[43]     OBJ       -980
    x[44]     c1        597
    x[44]     c2        790
    x[44]     c3        919
    x[44]     OBJ       -241
    x[45]     c1        137
    x[45]     c2        987
    x[45]     c3        818
    x[45]     OBJ       -141
    x[46]     c1        13
    x[46]     c2        770
    x[46]     c3        506
    x[46]     OBJ       -281
    x[47]     c1        542
    x[47]     c2        609
    x[47]     c3        104
    x[47]     OBJ       -152
    x[48]     c1        653
    x[48]     c2        972
    x[48]     c3        738
    x[48]     OBJ       -524
    x[49]     c1        420
    x[49]     c2        696
    x[49]     c3        259
    x[49]     OBJ       -80
    x[50]     c1        724
    x[50]     c2        387
    x[50]     c3        860
    x[50]     OBJ       -349
RHS
    rhs       c1        10986
    rhs       c2        15186
    rhs       c3        11889
RANGES
BOUNDS
 BV bounds    x[1]
 BV bounds    x[2]
 BV bounds    x[3]
 BV bounds    x[4]
 BV bounds    x[5]
 BV bounds    x[6]
 BV bounds    x[7]
 BV bounds    x[8]
 BV bounds    x[9]
 BV bounds    x[10]
 BV bounds    x[11]
 BV bounds    x[12]
 BV bounds    x[13]
 BV bounds    x[14]
 BV bounds    x[15]
 BV bounds    x[16]
 BV bounds    x[17]
 BV bounds    x[18]
 BV bounds    x[19]
 BV bounds    x[20]
 BV bounds    x[21]
 BV bounds    x[22]
 BV bounds    x[23]
 BV bounds    x[24]
 BV bounds    x[25]
 BV bounds    x[26]
 BV bounds    x[27]
 BV bounds    x[28]
 BV bounds    x[29]
 BV bounds    x[30]
 BV bounds    x[31]
 BV bounds    x[32]
 BV bounds    x[33]
 BV bounds    x[34]
 BV bounds    x[35]
 BV bounds    x[36]
 BV bounds    x[37]
 BV bounds    x[38]
 BV bounds    x[39]
 BV bounds    x[40]
 BV bounds    x[41]
 BV bounds    x[42]
 BV bounds    x[43]
 BV bounds    x[44]
 BV bounds    x[45]
 BV bounds    x[46]
 BV bounds    x[47]
 BV bounds    x[48]
 BV bounds    x[49]
 BV bounds    x[50]
ENDATA
